60
1 0 1
2 0 1
2 1 1
3 0 1
3 2 1
4 0 1
4 1 1
5 0 1
5 1 1
5 2 1
5 3 1
6 0 1
6 1 1
6 2 1
6 3 1
7 0 1
7 1 1
7 2 1
7 5 1
7 6 1
8 0 1
8 3 1
8 6 1
8 7 1
9 0 1
9 1 1
9 4 1
9 7 1
10 2 1
10 3 1
10 4 1
10 6 1
10 7 1
10 9 1
11 0 1
11 1 1
11 2 1
11 6 1
11 7 1
11 9 1
12 0 1
12 1 1
12 2 1
12 9 1
12 11 1
13 1 1
13 2 1
13 4 1
13 5 1
13 7 1
13 10 1
13 11 1
14 0 1
14 2 1
14 3 1
14 4 1
14 5 1
14 7 1
14 8 1
14 9 1
14 11 1
14 13 1
15 1 1
15 2 1
15 3 1
15 5 1
15 6 1
15 7 1
15 8 1
15 9 1
16 0 1
16 1 1
16 2 1
16 5 1
16 7 1
16 8 1
16 12 1
17 1 1
17 4 1
17 10 1
17 11 1
17 12 1
17 14 1
18 2 1
18 3 1
18 8 1
18 9 1
18 10 1
18 12 1
18 15 1
18 16 1
19 0 1
19 1 1
19 11 1
19 13 1
19 17 1
20 0 1
20 1 1
20 2 1
20 4 1
20 5 1
20 7 1
20 9 1
20 13 1
20 19 1
21 1 1
21 5 1
21 7 1
21 10 1
21 11 1
21 14 1
21 18 1
21 19 1
22 1 1
22 2 1
22 5 1
22 7 1
22 8 1
22 9 1
22 12 1
22 13 1
22 15 1
22 17 1
22 18 1
22 21 1
23 0 1
23 1 1
23 2 1
23 3 1
23 9 1
23 13 1
23 15 1
23 16 1
23 17 1
23 18 1
23 19 1
24 1 1
24 5 1
24 6 1
24 11 1
24 13 1
24 14 1
24 15 1
24 16 1
24 18 1
24 19 1
24 20 1
24 21 1
25 0 1
25 1 1
25 3 1
25 4 1
25 5 1
25 7 1
25 10 1
25 11 1
25 13 1
25 14 1
25 15 1
25 16 1
25 17 1
25 18 1
25 19 1
25 20 1
25 22 1
25 24 1
26 1 1
26 3 1
26 6 1
26 8 1
26 11 1
26 12 1
26 14 1
26 15 1
26 16 1
26 18 1
26 24 1
27 2 1
27 3 1
27 4 1
27 5 1
27 7 1
27 8 1
27 9 1
27 10 1
27 12 1
27 13 1
27 15 1
27 18 1
27 23 1
27 24 1
27 26 1
28 0 1
28 2 1
28 4 1
28 5 1
28 11 1
28 14 1
28 15 1
28 16 1
28 18 1
28 19 1
28 20 1
28 21 1
28 26 1
28 27 1
29 1 1
29 2 1
29 3 1
29 4 1
29 7 1
29 10 1
29 11 1
29 12 1
29 13 1
29 14 1
29 15 1
29 17 1
29 21 1
29 22 1
29 23 1
29 24 1
29 25 1
29 26 1
29 28 1
30 4 1
30 6 1
30 7 1
30 8 1
30 9 1
30 13 1
30 16 1
30 17 1
30 20 1
30 21 1
30 28 1
31 0 1
31 1 1
31 4 1
31 5 1
31 7 1
31 9 1
31 12 1
31 15 1
31 20 1
31 23 1
31 24 1
31 25 1
31 26 1
31 27 1
31 28 1
31 29 1
31 30 1
32 1 1
32 2 1
32 4 1
32 5 1
32 6 1
32 8 1
32 9 1
32 10 1
32 13 1
32 14 1
32 16 1
32 17 1
32 18 1
32 23 1
32 25 1
32 26 1
32 28 1
32 31 1
33 2 1
33 3 1
33 4 1
33 5 1
33 9 1
33 11 1
33 13 1
33 14 1
33 16 1
33 19 1
33 20 1
33 21 1
33 23 1
33 25 1
33 26 1
33 29 1
33 30 1
33 31 1
33 32 1
34 0 1
34 1 1
34 3 1
34 7 1
34 9 1
34 16 1
34 23 1
34 25 1
34 26 1
34 28 1
34 29 1
34 30 1
34 31 1
35 6 1
35 9 1
35 10 1
35 16 1
35 20 1
35 26 1
35 28 1
35 33 1
36 0 1
36 3 1
36 4 1
36 5 1
36 9 1
36 12 1
36 13 1
36 14 1
36 18 1
36 20 1
36 21 1
36 22 1
36 24 1
36 29 1
36 32 1
36 33 1
36 34 1
36 35 1
37 0 1
37 2 1
37 4 1
37 6 1
37 10 1
37 11 1
37 12 1
37 15 1
37 16 1
37 17 1
37 21 1
37 23 1
37 24 1
37 25 1
37 27 1
37 28 1
37 29 1
37 32 1
37 36 1
38 1 1
38 2 1
38 3 1
38 5 1
38 9 1
38 10 1
38 11 1
38 14 1
38 15 1
38 16 1
38 17 1
38 18 1
38 19 1
38 21 1
38 22 1
38 24 1
38 25 1
38 26 1
38 27 1
38 28 1
38 29 1
38 32 1
38 34 1
38 37 1
39 5 1
39 6 1
39 8 1
39 9 1
39 12 1
39 17 1
39 18 1
39 20 1
39 22 1
39 23 1
39 24 1
39 25 1
39 26 1
39 28 1
39 30 1
39 32 1
39 34 1
39 35 1
40 1 1
40 7 1
40 8 1
40 10 1
40 11 1
40 13 1
40 16 1
40 17 1
40 20 1
40 22 1
40 25 1
40 34 1
40 35 1
40 37 1
40 38 1
41 2 1
41 3 1
41 5 1
41 6 1
41 7 1
41 12 1
41 13 1
41 14 1
41 16 1
41 18 1
41 19 1
41 20 1
41 21 1
41 22 1
41 24 1
41 26 1
41 27 1
41 28 1
41 30 1
41 31 1
41 32 1
41 35 1
41 36 1
41 37 1
41 38 1
41 39 1
42 0 1
42 5 1
42 6 1
42 7 1
42 8 1
42 11 1
42 13 1
42 15 1
42 16 1
42 18 1
42 19 1
42 21 1
42 23 1
42 25 1
42 26 1
42 27 1
42 32 1
42 34 1
42 36 1
42 37 1
42 38 1
42 39 1
42 40 1
43 1 1
43 2 1
43 3 1
43 6 1
43 7 1
43 9 1
43 18 1
43 20 1
43 26 1
43 28 1
43 34 1
43 35 1
43 36 1
43 37 1
43 39 1
43 41 1
44 3 1
44 4 1
44 9 1
44 11 1
44 12 1
44 13 1
44 16 1
44 18 1
44 19 1
44 20 1
44 21 1
44 23 1
44 24 1
44 26 1
44 27 1
44 30 1
44 31 1
44 34 1
44 36 1
44 37 1
44 38 1
44 39 1
44 40 1
44 43 1
45 3 1
45 4 1
45 5 1
45 8 1
45 10 1
45 12 1
45 16 1
45 18 1
45 22 1
45 23 1
45 24 1
45 25 1
45 28 1
45 29 1
45 32 1
45 33 1
45 34 1
45 36 1
45 38 1
45 39 1
45 42 1
46 0 1
46 1 1
46 2 1
46 3 1
46 9 1
46 10 1
46 13 1
46 19 1
46 22 1
46 24 1
46 27 1
46 28 1
46 29 1
46 30 1
46 32 1
46 33 1
46 34 1
46 36 1
46 37 1
46 39 1
46 40 1
46 43 1
47 0 1
47 2 1
47 4 1
47 7 1
47 11 1
47 12 1
47 15 1
47 16 1
47 19 1
47 22 1
47 24 1
47 27 1
47 31 1
47 33 1
47 34 1
47 36 1
47 37 1
47 38 1
47 39 1
47 40 1
47 44 1
48 1 1
48 2 1
48 3 1
48 6 1
48 10 1
48 12 1
48 14 1
48 17 1
48 18 1
48 19 1
48 26 1
48 27 1
48 28 1
48 29 1
48 30 1
48 31 1
48 33 1
48 35 1
48 37 1
48 38 1
48 42 1
48 44 1
48 45 1
48 46 1
48 47 1
49 0 1
49 1 1
49 3 1
49 5 1
49 7 1
49 8 1
49 9 1
49 11 1
49 13 1
49 16 1
49 17 1
49 18 1
49 19 1
49 20 1
49 21 1
49 22 1
49 23 1
49 24 1
49 25 1
49 26 1
49 28 1
49 31 1
49 32 1
49 33 1
49 35 1
49 38 1
49 39 1
49 41 1
49 42 1
49 44 1
49 45 1
49 46 1
49 47 1
50 1 1
50 11 1
50 16 1
50 18 1
50 19 1
50 22 1
50 26 1
50 28 1
50 32 1
50 33 1
50 35 1
50 36 1
50 37 1
50 38 1
50 41 1
50 42 1
50 44 1
50 45 1
50 46 1
50 47 1
50 48 1
50 49 1
51 1 1
51 3 1
51 5 1
51 8 1
51 10 1
51 11 1
51 12 1
51 14 1
51 15 1
51 18 1
51 19 1
51 20 1
51 21 1
51 23 1
51 26 1
51 30 1
51 34 1
51 35 1
51 38 1
51 39 1
51 40 1
51 41 1
51 43 1
51 45 1
51 48 1
52 0 1
52 2 1
52 4 1
52 5 1
52 6 1
52 10 1
52 11 1
52 12 1
52 13 1
52 15 1
52 17 1
52 18 1
52 26 1
52 27 1
52 29 1
52 30 1
52 31 1
52 32 1
52 33 1
52 34 1
52 35 1
52 39 1
52 40 1
52 42 1
52 43 1
52 46 1
52 47 1
52 48 1
52 51 1
53 1 1
53 4 1
53 5 1
53 6 1
53 7 1
53 9 1
53 15 1
53 17 1
53 19 1
53 22 1
53 23 1
53 27 1
53 29 1
53 31 1
53 33 1
53 37 1
53 39 1
53 42 1
53 44 1
53 48 1
53 49 1
53 50 1
54 0 1
54 2 1
54 3 1
54 5 1
54 6 1
54 7 1
54 8 1
54 9 1
54 11 1
54 12 1
54 17 1
54 20 1
54 21 1
54 23 1
54 25 1
54 27 1
54 28 1
54 31 1
54 33 1
54 35 1
54 37 1
54 38 1
54 39 1
54 40 1
54 41 1
54 43 1
54 44 1
54 45 1
54 46 1
54 48 1
54 50 1
54 51 1
54 52 1
54 53 1
55 0 1
55 3 1
55 4 1
55 5 1
55 6 1
55 7 1
55 9 1
55 10 1
55 11 1
55 12 1
55 13 1
55 14 1
55 15 1
55 16 1
55 17 1
55 22 1
55 25 1
55 26 1
55 27 1
55 28 1
55 31 1
55 32 1
55 33 1
55 35 1
55 39 1
55 40 1
55 42 1
55 43 1
55 46 1
55 48 1
55 51 1
55 52 1
55 54 1
56 0 1
56 1 1
56 2 1
56 5 1
56 7 1
56 9 1
56 11 1
56 12 1
56 13 1
56 15 1
56 16 1
56 19 1
56 20 1
56 21 1
56 22 1
56 23 1
56 24 1
56 31 1
56 34 1
56 35 1
56 38 1
56 40 1
56 41 1
56 42 1
56 43 1
56 47 1
56 48 1
56 49 1
56 50 1
56 51 1
56 54 1
57 1 1
57 3 1
57 6 1
57 7 1
57 8 1
57 10 1
57 12 1
57 15 1
57 19 1
57 20 1
57 26 1
57 27 1
57 28 1
57 29 1
57 32 1
57 34 1
57 35 1
57 36 1
57 39 1
57 41 1
57 43 1
57 44 1
57 46 1
57 51 1
57 52 1
58 0 1
58 1 1
58 2 1
58 3 1
58 4 1
58 5 1
58 6 1
58 7 1
58 12 1
58 14 1
58 15 1
58 16 1
58 18 1
58 19 1
58 20 1
58 21 1
58 25 1
58 29 1
58 31 1
58 33 1
58 39 1
58 40 1
58 41 1
58 43 1
58 45 1
58 46 1
58 47 1
58 49 1
58 51 1
58 53 1
58 55 1
59 0 1
59 1 1
59 2 1
59 3 1
59 5 1
59 7 1
59 10 1
59 11 1
59 13 1
59 15 1
59 17 1
59 22 1
59 24 1
59 25 1
59 30 1
59 31 1
59 33 1
59 39 1
59 40 1
59 42 1
59 43 1
59 44 1
59 45 1
59 52 1
59 53 1
59 54 1
59 56 1
59 58 1
